
        $ From http://www.csplib.org/Problems/prob009/data/helmut.pdf
        $ Problem number 62
        $ Sequence length : 25
        language ESSENCE' 1.0
        letting sizemaster be 265
        letting sizes be sequence(1,3,4,6,9,10,11,12,16,17,18,20,21,22,39,42,54,56,62,66,68,69,74,130,135)
        